Traveling Salesman Problem/TSP_generados/Aleatorio1620390987_12.tsp
NAME: Aleatorio1620390987_12.tsp
COMMENT: Randomly generated scenario
TYPE: TSP
DIMENSION: 12
EDGE_WEIGHT_TYPE: ATT
NODE_COORD_SECTION
1 26.37 29.73
2 41.14 27.16
3 11.41 0.4
4 24.23 23.12
5 38.6 28.32
6 27.72 18.13
7 12.09 36.92
8 9.87 18.58
9 27.16 36.9
10 2.11 35.72
11 16.13 25.29
12 28.94 36.5
