Traveling Salesman Problem/TSP_generados/Aleatorio1620390987_12.opt.tour
NAME: Aleatorio1620390987_12.opt.tour
COMMENT: Optimal solution for Aleatorio1620390987_12 (139.41259868934478)
TYPE: TOUR
DIMENSION: 12
TOUR_SECTION
1 2 5 12 9 7 10 11 8 3 6 4
-1
EOF
